NAME 
ROWS
 N  OBJ
 L  R0      
 L  R1      
 L  R2      
 E  R3      
 E  R4      
 E  R5      
 E  R6      
 E  R7      
 E  R8      
 E  R9      
 E  R10     
 E  R11     
 E  R12     
 E  R13     
 E  R14     
 E  R15     
 E  R16     
 E  R17     
COLUMNS
    MARKER    'MARKER'                 'INTORG'
    I0(12)    OBJ       163
    I0(12)    R0        -26
    I0(12)    R1        -172
    I0(12)    R2        -106
    I0(12)    R3        12
    I0(12)    R4        3
    I0(12)    R5        13
    I0(12)    R6        8
    I0(12)    R7        15
    I0(12)    R9        6
    I0(12)    R10       10
    I0(12)    R11       9
    I0(12)    R17       1
    I1(11)    OBJ       143
    I1(11)    R0        -196
    I1(11)    R1        95
    I1(11)    R2        -22
    I1(11)    R4        18
    I1(11)    R5        16
    I1(11)    R6        19
    I1(11)    R8        -1
    I1(11)    R9        15
    I1(11)    R10       2
    I1(11)    R11       8
    I1(11)    R17       1
    I2(12)    OBJ       100
    I2(12)    R0        80
    I2(12)    R1        147
    I2(12)    R2        -2
    I2(12)    R3        1
    I2(12)    R4        3
    I2(12)    R5        15
    I2(12)    R7        17
    I2(12)    R8        15
    I2(12)    R9        6
    I2(12)    R10       19
    I2(12)    R11       9
    I2(12)    R17       1
    I3(8)     OBJ       -157
    I3(8)     R0        137
    I3(8)     R1        3
    I3(8)     R2        57
    I3(8)     R3        12
    I3(8)     R6        19
    I3(8)     R7        7
    I3(8)     R11       5
    I3(8)     R17       1
    I4(9)     OBJ       -63
    I4(9)     R0        -60
    I4(9)     R1        131
    I4(9)     R2        -106
    I4(9)     R3        17
    I4(9)     R4        6
    I4(9)     R6        12
    I4(9)     R7        7
    I4(9)     R8        6
    I4(9)     R17       1
    I5(12)    OBJ       91
    I5(12)    R0        -161
    I5(12)    R1        -169
    I5(12)    R2        -191
    I5(12)    R3        4
    I5(12)    R5        13
    I5(12)    R6        1
    I5(12)    R7        16
    I5(12)    R8        -1
    I5(12)    R9        2
    I5(12)    R10       16
    I5(12)    R11       12
    I5(12)    R17       1
    I6(11)    OBJ       -169
    I6(11)    R0        196
    I6(11)    R1        173
    I6(11)    R2        -179
    I6(11)    R3        1
    I6(11)    R4        5
    I6(11)    R6        3
    I6(11)    R8        -1
    I6(11)    R9        14
    I6(11)    R10       5
    I6(11)    R11       17
    I6(11)    R17       1
    I7(10)    OBJ       128
    I7(10)    R0        -127
    I7(10)    R1        -156
    I7(10)    R2        22
    I7(10)    R3        16
    I7(10)    R4        12
    I7(10)    R8        19
    I7(10)    R9        7
    I7(10)    R10       12
    I7(10)    R11       9
    I7(10)    R17       1
    I8(11)    OBJ       -68
    I8(11)    R0        -150
    I8(11)    R1        163
    I8(11)    R2        -131
    I8(11)    R3        10
    I8(11)    R4        4
    I8(11)    R5        6
    I8(11)    R6        10
    I8(11)    R7        1
    I8(11)    R9        14
    I8(11)    R11       2
    I8(11)    R17       1
    MARKER    'MARKER'                 'INTEND'
    C9(12)    R0        6
    C9(12)    R1        2
    C9(12)    R2        -6
    C9(12)    R3        13
    C9(12)    R4        5
    C9(12)    R5        7
    C9(12)    R7        12
    C9(12)    R8        6
    C9(12)    R9        17
    C9(12)    R10       15
    C9(12)    R11       -1
    C9(12)    R13       19
    C10(13)   OBJ       7
    C10(13)   R0        9
    C10(13)   R1        -8
    C10(13)   R3        9
    C10(13)   R5        15
    C10(13)   R6        5
    C10(13)   R7        9
    C10(13)   R8        14
    C10(13)   R10       8
    C10(13)   R11       11
    C10(13)   R12       12
    C10(13)   R13       8
    C10(13)   R15       2
    C10(13)   R16       4
    C11(17)   OBJ       9
    C11(17)   R0        -2
    C11(17)   R1        6
    C11(17)   R2        -8
    C11(17)   R3        18
    C11(17)   R4        6
    C11(17)   R5        14
    C11(17)   R6        -1
    C11(17)   R7        2
    C11(17)   R8        2
    C11(17)   R9        14
    C11(17)   R10       4
    C11(17)   R11       11
    C11(17)   R12       13
    C11(17)   R13       13
    C11(17)   R14       19
    C11(17)   R15       -1
    C11(17)   R16       10
    C12(10)   OBJ       -4
    C12(10)   R0        7
    C12(10)   R2        4
    C12(10)   R4        11
    C12(10)   R6        11
    C12(10)   R9        -1
    C12(10)   R10       6
    C12(10)   R12       17
    C12(10)   R13       18
    C12(10)   R14       7
    C12(10)   R15       2
    C13(16)   OBJ       5
    C13(16)   R0        4
    C13(16)   R1        -8
    C13(16)   R2        -5
    C13(16)   R3        1
    C13(16)   R4        17
    C13(16)   R5        14
    C13(16)   R7        16
    C13(16)   R8        16
    C13(16)   R9        3
    C13(16)   R10       3
    C13(16)   R11       6
    C13(16)   R12       11
    C13(16)   R13       15
    C13(16)   R14       11
    C13(16)   R15       3
    C13(16)   R16       8
    C14(14)   OBJ       -1
    C14(14)   R0        8
    C14(14)   R1        4
    C14(14)   R2        6
    C14(14)   R3        12
    C14(14)   R4        5
    C14(14)   R5        5
    C14(14)   R6        10
    C14(14)   R7        16
    C14(14)   R9        7
    C14(14)   R10       6
    C14(14)   R11       10
    C14(14)   R12       12
    C14(14)   R15       15
    C14(14)   R16       10
    C15(1)    R3        1
    C16(1)    R4        1
    C17(1)    R5        1
    C18(1)    R6        1
    C19(1)    R7        1
    C20(1)    R8        1
    C21(1)    R9        1
    C22(1)    R10       1
    C23(1)    R11       1
    C24(1)    R12       1
    C25(1)    R13       1
    C26(1)    R14       1
    C27(1)    R15       1
    C28(1)    R16       1
    C29(1)    R17       1
RHS
    RHS1      R0        5.6648148148148130e+02
    RHS1      R1        3.5762962962962951e+02
    RHS1      R2        -2.7650000000000017e+02
    RHS1      R3        98
    RHS1      R4        86
    RHS1      R5        79
    RHS1      R6        91
    RHS1      R7        88
    RHS1      R8        86
    RHS1      R9        64
    RHS1      R10       66
    RHS1      R11       91
    RHS1      R12       75
    RHS1      R13       52
    RHS1      R14       68
    RHS1      R15       96
    RHS1      R16       98
    RHS1      R17       3
BOUNDS
 UP BND1      I0(12)    2
 UP BND1      I1(11)    2
 UP BND1      I2(12)    2
 UP BND1      I3(8)     2
 UP BND1      I4(9)     2
 UP BND1      I5(12)    2
 UP BND1      I6(11)    2
 UP BND1      I7(10)    2
 UP BND1      I8(11)    2
ENDATA
